c ---- [ banner ] ------------------------------------------------------------
c
c Kissat SAT Solver
c 
c Copyright (c) 2021-2024 Armin Biere University of Freiburg
c Copyright (c) 2019-2021 Armin Biere Johannes Kepler University Linz
c 
c Version 4.0.1 43f02cf3e992cb44653b35e5cb26f93281552ae0
c gcc (Ubuntu 13.2.0-23ubuntu4) 13.2.0 -W -Wall -O3 -DNDEBUG
c Thu Sep 12 12:27:46 CEST 2024 Linux abryzen9 6.8.0-41-generic x86_64
c
c ---- [ parsing ] -----------------------------------------------------------
c
c opened and reading DIMACS file:
c
c   /data/artifact/AMulet2.0_artifact/exp4/cnf_compress2rs_64/64_64_U_SP_WT_CL_GenMul_compress2rs.cnf
c
c parsed 'p cnf 37570 145990' header
c closing input after reading 2839681 bytes (3 MB)
c finished parsing after 0.04 seconds
c
c ---- [ options ] -----------------------------------------------------------
c
c --stable=0                       (different from default '1')
c
c ---- [ solving ] -----------------------------------------------------------
c
c  seconds switched rate     size/glue tier1  binary           remaining
c         MB reductions conflicts size  tier2     irredundant
c          level restarts redundant glue  trail           variables
c
c *  0.04 11 0 0 0  0 0   0   0 0.0 0 0 0 0 0% 31351 114637 37567 100%
c (  0.07 13 0 0 0  0 0   0   0 0.0 0 0 0 0 0% 31351 114637 37567 100%
c .  0.08 13 0 0 0  0 0   0   0 0.0 0 0 0 0 0% 31347 114637 37567 100%
c c  0.19 22 0 0 0  0 0   0   0 0.0 0 0 0 0 0% 38911 99750 33784 90%
c d  0.20 22 0 0 0  0 0   0   0 0.0 0 0 0 0 0% 31345 99750 33784 90%
c =  0.26 22 0 0 0  0 0   0   0 0.0 0 0 0 0 0% 31719 99750 33518 89%
c d  0.27 22 0 0 0  0 0   0   0 0.0 0 0 0 0 0% 31187 99750 33518 89%
c f  0.40 21 0 0 0  0 0   0   0 0.0 0 0 0 0 0% 34311 94790 35352 94%
c e  0.57 28 0 0 0  0 0   0   0 0.0 0 0 0 0 0% 12237 109264 24001 64%
c )  0.57 28 0 0 0  0 0   0   0 0.0 0 0 0 0 0% 12237 109264 24001 64%
c {  0.60 28 0 0 0  0 0   0   0 0.0 0 0 2 6 0% 12237 109264 24001 64%
c -  0.85 30 103 0 1 318 35 1000 734 3.1 13 4 2 7 14% 12348 109263 24001 64%
c -  1.24 30 224 0 2 512 38 2000 1508 4.7 27 6 2 9 19% 12372 109263 24001 64%
c u  1.50 24 275 0 2 590 42 2504 1561 4.7 26 6 2 9 20% 12429 109261 24001 64%
c v  1.53 24 275 0 2 590 42 2504 1242 4.7 26 6 2 9 20% 12429 109261 24001 64%
c w  1.56 26 275 0 2 590 42 2504 1242 4.7 26 6 2 9 20% 12429 109261 24001 64%
c x  1.58 26 275 0 2 590 42 2504 1241 4.7 26 6 2 9 20% 12523 108979 24001 64%
c =  1.69 26 275 0 2 590 42 2504 1241 4.7 26 6 2 9 20% 12541 108979 23992 64%
c d  1.70 26 275 0 2 590 42 2504 1241 4.7 26 6 2 9 20% 12523 108979 23992 64%
c t  1.71 26 275 0 2 590 42 2504 1241 4.7 26 6 2 9 20% 12510 108979 23992 64%
c
c  seconds   switched   rate       size/glue tier1    binary           remaining
c         MB  reductions conflicts       size  tier2      irredundant
c           level restarts    redundant    glue   trail           variables
c
c f  1.75 26 275 0 2 590 42 2504 1241 4.7 26 6 2 9 20% 13225 107636 24618 66%
c u  1.80 26 275 0 2 590 42 2504 1197 4.7 26 6 2 9 20% 13226 107636 24618 66%
c v  1.82 26 275 0 2 590 42 2504 1150 4.7 26 6 2 9 20% 13226 107636 24618 66%
c w  1.88 28 275 0 2 590 42 2504 1144 4.7 26 6 2 9 20% 13226 107636 24618 66%
c x  1.90 28 275 0 2 590 42 2504 1144 4.7 26 6 2 9 20% 13230 107620 24618 66%
c =  1.99 28 275 0 2 590 42 2504 1144 4.7 26 6 2 9 20% 13512 107620 24477 65%
c d  2.01 28 275 0 2 590 42 2504 1144 4.7 26 6 2 9 20% 13157 107620 24477 65%
c f  2.06 28 275 0 2 590 42 2504 1144 4.7 26 6 2 9 20% 14246 105985 25022 67%
c -  2.53 28 264 0 3 760 45 3416 1663 5.2 31 6 2 10 24% 14283 105984 25022 67%
c -  3.05 28 287 0 4 950 41 5148 2765 5.1 32 6 2 9 23% 14355 105978 25022 67%
c -  3.54 28 341 0 5 1095 39 7149 3931 4.8 30 6 2 9 24% 14464 105972 25022 67%
c c  3.74 28 366 0 5 1144 38 7710 4347 4.8 31 6 2 9 24% 14504 105901 25000 67%
c d  3.75 28 366 0 5 1144 38 7710 4342 4.8 31 6 2 9 24% 14445 105901 24991 67%
c u  3.78 28 366 0 5 1144 38 7710 3434 4.8 31 6 2 9 24% 14460 105901 24991 67%
c v  3.82 28 366 0 5 1144 38 7710 2894 4.8 31 6 2 9 24% 14461 105901 24991 67%
c w  3.89 28 366 0 5 1144 38 7710 2885 4.8 31 6 2 9 24% 14461 105901 24991 67%
c =  4.05 28 366 0 5 1144 38 7710 2885 4.8 31 6 2 9 24% 15565 105901 24439 65%
c d  4.06 28 366 0 5 1144 38 7710 2877 4.8 31 6 2 9 24% 14359 105901 24436 65%
c t  4.08 28 366 0 5 1144 38 7710 2877 4.8 31 6 2 9 24% 14322 105901 24436 65%
c f  4.14 28 366 0 5 1144 38 7710 2877 4.8 31 6 2 9 24% 16166 103133 25358 67%
c
c  seconds   switched    rate       size/glue tier1    binary           remaining
c         MB  reductions  conflicts       size  tier2      irredundant
c           level  restarts    redundant    glue   trail           variables
c
c u  4.19 28 366 0 5 1144 38 7710 2717 4.8 31 6 2 9 24% 16169 103133 25358 67%
c v  4.22 28 366 0 5 1144 38 7710 2625 4.8 31 6 2 9 24% 16169 103133 25358 67%
c w  4.28 28 366 0 5 1144 38 7710 2624 4.8 31 6 2 9 24% 16169 103133 25358 67%
c x  4.33 28 366 0 5 1144 38 7710 2624 4.8 31 6 2 9 24% 16185 102510 25358 67%
c =  4.49 28 366 0 5 1144 38 7710 2624 4.8 31 6 2 9 24% 16877 102510 25012 67%
c d  4.50 28 366 0 5 1144 38 7710 2616 4.8 31 6 2 9 24% 16111 102510 25012 67%
c t  4.52 28 366 0 5 1144 38 7710 2616 4.8 31 6 2 9 24% 16083 102510 25012 67%
c f  4.58 28 366 0 5 1144 38 7710 2616 4.8 31 6 2 9 24% 16129 102437 25039 67%
c -  4.92 28 379 0 6 1223 35 9385 3430 4.8 30 6 2 8 24% 16250 102435 25039 67%
c o  5.19 28 369 0 6 1285 35 10001 3972 4.7 29 6 2 8 24% 16267 102435 25039 67%
c -  5.52 28 379 0 7 1386 35 11835 4917 4.6 28 6 2 8 24% 16357 102431 25039 67%
c s  5.68 28 382 0 7 1409 34 12516 5473 4.5 27 6 2 8 24% 16402 99439 25039 67%
c e  5.82 28 382 0 7 1409 34 12516 5473 4.5 27 6 2 8 24% 13652 101453 23517 63%
c s  5.83 28 382 0 7 1409 34 12516 5473 4.5 27 6 2 8 24% 13660 100248 23517 63%
c e  5.85 28 382 0 7 1409 34 12516 5473 4.5 27 6 2 8 24% 13654 100253 23511 63%
c ^  5.85 28 382 0 7 1409 34 12516 5473 4.5 27 6 2 8 24% 13654 100253 23511 63%
c -  6.35 28 360 0 8 1536 32 14480 5898 4.3 26 6 2 8 24% 13712 100253 23511 63%
c d  6.72 28 346 0 8 1672 32 15793 6958 4.2 25 6 2 8 24% 13457 100253 23312 62%
c u  6.77 28 346 0 8 1672 32 15793 5502 4.2 25 6 2 8 24% 13472 100253 23312 62%
c v  6.82 28 346 0 8 1672 32 15793 4824 4.2 25 6 2 8 24% 13473 100253 23312 62%
c
c  seconds   switched    rate        size/glue tier1    binary           remaining
c         MB  reductions   conflicts       size  tier2      irredundant
c           level  restarts     redundant    glue   trail           variables
c
c w  6.88 28 346 0 8 1672 32 15793 4823 4.2 25 6 2 8 24% 13473 100253 23312 62%
c x  6.93 28 346 0 8 1672 32 15793 4823 4.2 25 6 2 8 24% 13480 96323 23312 62%
c =  7.13 28 346 0 8 1672 32 15793 4823 4.2 25 6 2 8 24% 14792 96323 22656 60%
c d  7.14 28 346 0 8 1672 32 15793 4729 4.2 25 6 2 8 24% 13182 96323 22656 60%
c t  7.16 28 346 0 8 1672 32 15793 4729 4.2 25 6 2 8 24% 13134 96323 22656 60%
c f  7.23 28 346 0 8 1672 32 15793 4729 4.2 25 6 2 8 24% 13154 96255 22678 60%
c u  7.33 28 346 0 8 1672 32 15793 4346 4.2 25 6 2 8 24% 13154 96255 22678 60%
c v  7.36 28 346 0 8 1672 32 15793 4234 4.2 25 6 2 8 24% 13155 96255 22678 60%
c w  7.44 28 346 0 8 1672 32 15793 4209 4.2 25 6 2 8 24% 13155 96255 22678 60%
c x  7.48 28 346 0 8 1672 32 15793 4209 4.2 25 6 2 8 24% 13219 94831 22678 60%
c =  7.67 28 346 0 8 1672 32 15793 4209 4.2 25 6 2 8 24% 14725 94831 21925 58%
c d  7.68 28 346 0 8 1672 32 15793 4174 4.2 25 6 2 8 24% 12829 94831 21925 58%
c t  7.70 28 346 0 8 1672 32 15793 4174 4.2 25 6 2 8 24% 12828 94831 21925 58%
c f  7.74 28 346 0 8 1672 32 15793 4174 4.2 25 6 2 8 24% 12832 94819 21929 58%
c -  8.14 28 353 0 9 1773 31 17309 4916 4.2 25 6 2 8 24% 12865 94818 21929 58%
c o  8.56 28 370 0 9 1922 32 20076 7362 4.1 24 6 2 8 23% 12935 94813 21929 58%
c -  8.72 28 367 0 10 1966 32 20309 6855 4.2 25 6 2 7 24% 12935 94813 21929 58%
c -  9.41 28 364 0 11 2190 32 23472 8669 4.2 25 6 2 7 24% 13005 94813 21929 58%
c s  9.74 28 360 0 11 2278 31 25023 10025 4.2 24 6 2 7 24% 13049 94293 21929 58%
c e  9.90 28 360 0 11 2278 31 25023 10025 4.2 24 6 2 7 24% 11349 98189 18787 50%
c
c  seconds   switched     rate         size/glue tier1    binary          remaining
c         MB   reductions   conflicts        size  tier2      irredundant
c           level   restarts      redundant    glue   trail          variables
c
c 2  9.90 28 360 0 11 2278 31 25023 10025 4.2 24 6 2 7 24% 11348 98189 18787 50%
c s  9.93 28 360 0 11 2278 31 25023 10025 4.2 24 6 2 7 24% 11382 94495 18787 50%
c e  9.98 28 360 0 11 2278 31 25023 10025 4.2 24 6 2 7 24% 11356 94535 18768 50%
c ^  9.98 28 360 0 11 2278 31 25023 10025 4.2 24 6 2 7 24% 11356 94535 18768 50%
c - 10.54 28 341 0 12 2421 30 26789 8567 4.0 23 6 2 7 24% 11367 94535 18768 50%
c d 10.61 28 340 0 12 2439 30 26921 8692 4.0 23 6 2 7 24% 11312 94535 18731 50%
c u 10.67 28 340 0 12 2439 30 26921 7099 4.0 23 6 2 7 24% 11327 94535 18731 50%
c v 10.72 28 340 0 12 2439 30 26921 6174 4.0 23 6 2 7 24% 11333 94535 18731 50%
c w 10.73 28 340 0 12 2439 30 26921 6171 4.0 23 6 2 7 24% 11332 94535 18731 50%
c x 10.82 28 340 0 12 2439 30 26921 6169 4.0 23 6 2 7 24% 11373 93110 18731 50%
c = 11.07 28 340 0 12 2439 30 26921 6169 4.0 23 6 2 7 24% 12487 93108 18174 48%
c d 11.08 28 340 0 12 2439 30 26921 6129 4.0 23 6 2 7 24% 11251 93108 18171 48%
c t 11.11 28 340 0 12 2439 30 26921 6129 4.0 23 6 2 7 24% 11208 93108 18171 48%
c f 11.20 28 340 0 12 2439 30 26921 6129 4.0 23 6 2 7 24% 11206 93019 18193 48%
c u 11.25 28 340 0 12 2439 30 26921 5829 4.0 23 6 2 7 24% 11212 93019 18193 48%
c v 11.29 28 340 0 12 2439 30 26921 5700 4.0 23 6 2 7 24% 11212 93019 18193 48%
c w 11.30 28 340 0 12 2439 30 26921 5697 4.0 23 6 2 7 24% 11212 93019 18193 48%
c x 11.43 28 340 0 12 2439 30 26921 5697 4.0 23 6 2 7 24% 11242 90214 18193 48%
c = 11.67 28 340 0 12 2439 30 26921 5697 4.0 23 6 2 7 24% 13378 90214 17125 46%
c d 11.68 28 340 0 12 2439 30 26921 5573 4.0 23 6 2 7 24% 11183 90214 17125 46%
c
c  seconds   switched     rate        size/glue tier1    binary          remaining
c         MB   reductions   conflicts       size  tier2      irredundant
c           level   restarts     redundant    glue   trail          variables
c
c t 11.70 28 340 0 12 2439 30 26921 5573 4.0 23 6 2 7 24% 11176 90214 17125 46%
c f 11.76 28 340 0 12 2439 30 26921 5573 4.0 23 6 2 7 24% 11177 90204 17128 46%
c - 12.41 28 312 0 13 2742 28 30253 7654 3.7 22 6 2 7 25% 11202 90203 17128 46%
c - 13.35 28 293 0 14 3182 28 33858 9808 3.6 21 6 2 7 25% 11238 90203 17128 46%
c - 14.05 28 279 0 15 3482 27 37600 11615 3.5 21 6 2 7 24% 11282 90200 17128 46%
c o 14.51 28 273 0 15 3665 26 40680 14192 3.4 20 6 2 7 24% 11336 90199 17128 46%
c d 14.82 28 271 0 15 3801 27 41247 14586 3.4 21 6 2 7 24% 11275 90199 17092 45%
c u 14.90 28 271 0 15 3801 27 41247 12245 3.4 21 6 2 7 24% 11295 90199 17092 45%
c v 14.99 28 271 0 15 3801 27 41247 10786 3.4 21 6 2 7 24% 11299 90199 17092 45%
c w 15.05 28 271 0 15 3801 27 41247 10786 3.4 21 6 2 7 24% 11299 90199 17092 45%
c x 15.15 29 271 0 15 3801 27 41247 10786 3.4 21 6 2 7 24% 11300 81337 17092 45%
c = 15.45 29 271 0 15 3801 27 41247 10786 3.4 21 6 2 7 24% 12046 81337 16719 45%
c d 15.46 29 271 0 15 3801 27 41247 10552 3.4 21 6 2 7 24% 11264 81337 16719 45%
c t 15.49 29 271 0 15 3801 27 41247 10552 3.4 21 6 2 7 24% 11245 81337 16719 45%
c u 15.65 29 271 0 15 3801 27 41247 9845 3.4 21 6 2 7 24% 11258 81337 16719 45%
c v 15.71 29 271 0 15 3801 27 41247 9395 3.4 21 6 2 7 24% 11258 81337 16719 45%
c w 15.83 29 271 0 15 3801 27 41247 9385 3.4 21 6 2 7 24% 11258 81337 16719 45%
c x 15.91 29 271 0 15 3801 27 41247 9384 3.4 21 6 2 7 24% 11266 79708 16719 45%
c = 16.21 29 271 0 15 3801 27 41247 9384 3.4 21 6 2 7 24% 12228 79707 16238 43%
c d 16.22 29 271 0 15 3801 27 41247 9257 3.4 21 6 2 7 24% 11237 79707 16238 43%
c
c  seconds   switched     rate        size/glue tier1    binary          remaining
c         MB   reductions   conflicts       size  tier2      irredundant
c           level   restarts     redundant    glue   trail          variables
c
c t 16.25 29 271 0 15 3801 27 41247 9257 3.4 21 6 2 7 24% 11235 79707 16238 43%
c f 16.28 29 271 0 15 3801 27 41247 9257 3.4 21 6 2 7 24% 11236 79703 16239 43%
c - 16.31 29 271 0 16 3801 27 41472 8367 3.4 21 6 2 7 24% 11240 79703 16239 43%
c - 17.09 29 262 0 17 4145 26 45472 10657 3.4 20 6 2 6 24% 11290 79703 16239 43%
c - 17.75 29 252 0 18 4464 26 49600 12898 3.3 20 6 2 6 24% 11373 79699 16239 43%
c s 18.17 29 250 0 18 4659 25 52126 15158 3.3 20 6 2 6 24% 11409 76193 16239 43%
c e 18.30 29 250 0 18 4659 25 52126 15158 3.3 20 6 2 6 24% 9703 79495 14831 39%
c s 18.32 29 250 0 18 4659 25 52126 15158 3.3 20 6 2 6 24% 9727 78792 14831 39%
c e 18.34 29 250 0 18 4659 25 52126 15158 3.3 20 6 2 6 24% 9693 78847 14812 39%
c ^ 18.34 29 250 0 18 4659 25 52126 15158 3.3 20 6 2 6 24% 9693 78847 14812 39%
c - 18.85 29 245 0 19 4899 25 53842 12572 3.2 20 6 2 6 24% 9701 78847 14812 39%
c - 19.89 29 232 0 20 5397 25 58200 14693 3.1 19 6 2 6 25% 9771 78846 14812 39%
c d 20.03 29 230 0 20 5510 25 58878 15221 3.1 19 6 2 6 24% 9741 78846 14791 39%
c u 20.12 29 230 0 20 5510 25 58878 12327 3.1 19 6 2 6 24% 9759 78846 14791 39%
c v 20.21 29 230 0 20 5510 25 58878 10764 3.1 19 6 2 6 24% 9765 78846 14791 39%
c w 20.25 29 230 0 20 5510 25 58878 10719 3.1 19 6 2 6 24% 9765 78846 14791 39%
c x 20.35 29 230 0 20 5510 25 58878 10718 3.1 19 6 2 6 24% 9775 78648 14791 39%
c d 20.71 29 230 0 20 5510 25 58878 10702 3.1 19 6 2 6 24% 9757 78648 14782 39%
c t 20.73 29 230 0 20 5510 25 58878 10702 3.1 19 6 2 6 24% 9717 78648 14782 39%
c f 20.80 29 230 0 20 5510 25 58878 10702 3.1 19 6 2 6 24% 9727 78600 14789 39%
c
c  seconds   switched     rate         size/glue tier1    binary         remaining
c         MB   reductions   conflicts        size  tier2     irredundant
c           level   restarts      redundant    glue   trail         variables
c
c u 20.88 29 230 0 20 5510 25 58878 10270 3.1 19 6 2 6 24% 9732 78600 14789 39%
c v 20.93 29 230 0 20 5510 25 58878 10003 3.1 19 6 2 6 24% 9732 78600 14789 39%
c w 20.97 29 230 0 20 5510 25 58878 9979 3.1 19 6 2 6 24% 9732 78600 14789 39%
c x 21.13 29 230 0 20 5510 25 58878 9974 3.1 19 6 2 6 24% 9740 76923 14789 39%
c d 21.14 29 230 0 20 5510 25 58878 9973 3.1 19 6 2 6 24% 9738 76923 14788 39%
c t 21.16 29 230 0 20 5510 25 58878 9973 3.1 19 6 2 6 24% 9735 76923 14788 39%
c - 22.20 29 221 0 21 5972 24 62673 12036 3.0 19 6 2 6 25% 9744 76922 14788 39%
c - 23.30 29 211 0 22 6451 24 67255 14433 2.9 18 6 2 6 25% 9787 76921 14788 39%
c o 23.76 29 211 0 22 6640 24 70686 17374 2.9 18 6 2 6 25% 9836 76921 14788 39%
c - 24.12 29 209 0 23 6825 24 71945 16390 2.9 18 6 2 6 25% 9844 76921 14788 39%
c - 25.64 29 205 0 24 7526 24 76740 18295 2.9 18 6 2 6 25% 9898 76921 14788 39%
c d 26.21 29 200 0 24 7857 24 79943 20867 2.9 18 6 2 6 25% 9810 76921 14726 39%
c u 26.32 29 200 0 24 7857 24 79943 17533 2.9 18 6 2 6 25% 9844 76921 14726 39%
c v 26.43 29 200 0 24 7857 24 79943 15436 2.9 18 6 2 6 25% 9850 76921 14726 39%
c w 26.54 29 200 0 24 7857 24 79943 15393 2.9 18 6 2 6 25% 9850 76921 14726 39%
c x 26.67 29 200 0 24 7857 24 79943 15392 2.9 18 6 2 6 25% 9873 75683 14726 39%
c = 27.07 29 200 0 24 7857 24 79943 15392 2.9 18 6 2 6 25% 10193 75673 14566 39%
c d 27.08 29 200 0 24 7857 24 79943 15276 2.9 18 6 2 6 25% 9822 75673 14557 39%
c t 27.10 29 200 0 24 7857 24 79943 15276 2.9 18 6 2 6 25% 9786 75673 14557 39%
c f 27.12 29 200 0 24 7857 24 79943 15276 2.9 18 6 2 6 25% 9785 75657 14560 39%
c
c  seconds   switched     rate         size/glue tier1    binary         remaining
c         MB   reductions   conflicts        size  tier2     irredundant
c           level   restarts      redundant    glue   trail         variables
c
c u 27.21 29 200 0 24 7857 24 79943 14503 2.9 18 6 2 6 25% 9790 75657 14560 39%
c v 27.28 29 200 0 24 7857 24 79943 14108 2.9 18 6 2 6 25% 9791 75657 14560 39%
c w 27.42 29 200 0 24 7857 24 79943 13956 2.9 18 6 2 6 25% 9791 75657 14560 39%
c x 27.55 29 200 0 24 7857 24 79943 13955 2.9 18 6 2 6 25% 9804 75383 14560 39%
c = 28.06 29 200 0 24 7857 24 79943 13955 2.9 18 6 2 6 25% 10166 75383 14379 38%
c d 28.07 29 200 0 24 7857 24 79943 13839 2.9 18 6 2 6 25% 9776 75383 14379 38%
c t 28.09 29 200 0 24 7857 24 79943 13839 2.9 18 6 2 6 25% 9766 75383 14379 38%
c f 28.11 29 200 0 24 7857 24 79943 13839 2.9 18 6 2 6 25% 9767 75374 14380 38%
c - 28.36 29 197 0 25 7940 23 81641 13810 2.9 18 6 2 6 25% 9779 75373 14380 38%
c - 29.37 29 189 0 26 8368 23 86645 16549 2.8 18 6 2 6 25% 9820 75368 14380 38%
c - 30.67 29 185 0 27 8963 23 91745 19034 2.8 18 6 2 5 25% 9852 75367 14380 38%
c s 31.79 29 183 0 27 9484 23 95798 22720 2.8 18 6 2 5 25% 9894 74067 14380 38%
c e 31.93 29 183 0 27 9484 23 95798 22720 2.8 18 6 2 5 25% 7259 81228 12868 34%
c 2 31.93 29 183 0 27 9484 23 95798 22720 2.8 18 6 2 5 25% 7256 81228 12868 34%
c s 31.95 29 183 0 27 9484 23 95798 22720 2.8 18 6 2 5 25% 7296 80480 12868 34%
c e 31.98 29 183 0 27 9484 23 95798 22720 2.8 18 6 2 5 25% 7236 80692 12814 34%
c ^ 31.98 29 183 0 27 9484 23 95798 22720 2.8 18 6 2 5 25% 7236 80692 12814 34%
c - 32.40 29 182 0 28 9708 23 96941 14958 2.8 18 6 1 5 25% 7242 80692 12814 34%
c - 33.28 29 180 0 29 10158 23 102233 16477 2.8 18 7 1 5 25% 7279 80690 12814 34%
c c 34.02 29 179 0 29 10479 23 104566 18487 2.8 18 7 1 5 25% 7349 80439 12771 34%
c
c  seconds   switched      rate          size/glue tier1    binary         remaining
c         MB   reductions    conflicts         size  tier2     irredundant
c           level   restarts        redundant    glue   trail         variables
c
c d 34.02 29 179 0 29 10479 23 104566 18487 2.8 18 7 1 5 25% 7263 80439 12771 34%
c u 34.09 29 179 0 29 10479 23 104566 16603 2.8 18 7 1 5 25% 7282 80439 12771 34%
c v 34.19 29 179 0 29 10479 23 104566 13708 2.8 18 7 1 5 25% 7295 80439 12771 34%
c w 34.38 29 179 0 29 10479 23 104566 13522 2.8 18 7 1 5 25% 7295 80439 12771 34%
c x 34.49 29 179 0 29 10479 23 104566 13521 2.8 18 7 1 5 25% 7295 80401 12771 34%
c = 35.06 29 179 0 29 10479 23 104566 13521 2.8 18 7 1 5 25% 7621 80387 12607 34%
c d 35.07 29 179 0 29 10479 23 104566 13339 2.8 18 7 1 5 25% 7262 80387 12607 34%
c t 35.09 29 179 0 29 10479 23 104566 13339 2.8 18 7 1 5 25% 7194 80387 12607 34%
c f 35.17 29 179 0 29 10479 23 104566 13339 2.8 18 7 1 5 25% 7228 80172 12626 34%
c u 35.24 29 179 0 29 10479 23 104566 12882 2.8 18 7 1 5 25% 7229 80172 12626 34%
c v 35.30 29 179 0 29 10479 23 104566 12385 2.8 18 7 1 5 25% 7229 80172 12626 34%
c w 35.48 29 179 0 29 10479 23 104566 12143 2.8 18 7 1 5 25% 7229 80172 12626 34%
c = 36.03 29 179 0 29 10479 23 104566 12143 2.8 18 7 1 5 25% 7549 80152 12463 33%
c d 36.04 29 179 0 29 10479 23 104566 12113 2.8 18 7 1 5 25% 7218 80151 12463 33%
c t 36.05 29 179 0 29 10479 23 104566 12113 2.8 18 7 1 5 25% 7202 80151 12463 33%
c f 36.07 29 179 0 29 10479 23 104566 12113 2.8 18 7 1 5 25% 7208 80109 12467 33%
c - 36.63 29 175 0 30 10713 23 107619 12568 2.7 18 7 1 5 25% 7238 80104 12467 33%
c o 37.15 29 172 0 30 10977 22 110814 15388 2.7 18 7 1 5 25% 7253 80104 12467 33%
c - 37.65 29 170 0 31 11193 22 113096 15019 2.7 18 7 1 5 25% 7270 80101 12467 33%
c - 38.61 29 168 0 32 11601 22 118663 16915 2.7 18 7 1 5 25% 7332 80096 12467 33%
c
c  seconds   switched      rate          size/glue tier1    binary         remaining
c         MB   reductions    conflicts         size  tier2     irredundant
c           level   restarts        redundant    glue   trail         variables
c
c i 38.78 29 168 0 32 11678 22 119236 17436 2.7 18 7 1 5 25% 7336 80096 12466 33%
c - 40.10 29 166 0 33 12281 22 124321 18635 2.7 19 7 1 5 25% 7358 80095 12466 33%
c - 41.99 29 163 0 34 13046 22 130065 20278 2.8 20 7 1 5 26% 7389 80095 12466 33%
c d 42.77 29 162 0 34 13375 22 132809 22757 2.8 20 7 1 5 26% 7355 80087 12441 33%
c d 42.78 29 162 0 34 13375 22 132809 22753 2.8 20 7 1 5 26% 7351 80087 12439 33%
c u 42.87 29 162 0 34 13375 22 132809 20412 2.8 20 7 1 5 26% 7386 80087 12439 33%
c v 43.01 29 162 0 34 13375 22 132809 16843 2.8 20 7 1 5 26% 7392 80087 12439 33%
c w 43.22 29 162 0 34 13375 22 132809 16789 2.8 20 7 1 5 26% 7392 80087 12439 33%
c x 43.37 29 162 0 34 13375 22 132809 16740 2.8 20 7 1 5 26% 7423 77071 12439 33%
c = 44.07 29 162 0 34 13375 22 132809 16740 2.8 20 7 1 5 26% 7463 77050 12417 33%
c d 44.08 29 162 0 34 13375 22 132809 16696 2.8 20 7 1 5 26% 7400 77050 12411 33%
c t 44.10 29 162 0 34 13375 22 132809 16696 2.8 20 7 1 5 26% 7316 77050 12411 33%
c f 44.12 29 162 0 34 13375 22 132809 16696 2.8 20 7 1 5 26% 7318 77039 12412 33%
c c 44.18 29 162 0 34 13375 22 132809 16687 2.8 20 7 1 5 26% 7331 76995 12406 33%
c d 44.19 29 162 0 34 13375 22 132809 16687 2.8 20 7 1 5 26% 7319 76995 12406 33%
c u 44.27 29 162 0 34 13375 22 132809 16008 2.8 20 7 1 5 26% 7329 76995 12406 33%
c v 44.34 29 162 0 34 13375 22 132809 15314 2.8 20 7 1 5 26% 7330 76995 12406 33%
c w 44.61 29 162 0 34 13375 22 132809 14892 2.8 20 7 1 5 26% 7331 76995 12406 33%
c x 44.77 29 162 0 34 13375 22 132809 14887 2.8 20 7 1 5 26% 7356 76067 12406 33%
c = 45.46 29 162 0 34 13375 22 132809 14887 2.8 20 7 1 5 26% 7426 76067 12371 33%
c
c  seconds   switched      rate          size/glue tier1    binary         remaining
c         MB   reductions    conflicts         size  tier2     irredundant
c           level   restarts        redundant    glue   trail         variables
c
c d 45.47 29 162 0 34 13375 22 132809 14865 2.8 20 7 1 5 26% 7349 76067 12371 33%
c t 45.48 29 162 0 34 13375 22 132809 14865 2.8 20 7 1 5 26% 7328 76067 12371 33%
c f 45.50 29 162 0 34 13375 22 132809 14865 2.8 20 7 1 5 26% 7332 76045 12373 33%
c - 46.25 29 161 0 35 13669 22 135895 15172 2.8 20 7 1 5 26% 7338 76042 12373 33%
c - 47.62 29 159 0 36 14264 22 141811 17840 2.8 20 7 1 5 26% 7383 76041 12373 33%
c - 49.17 29 158 0 37 14881 22 147813 20136 2.8 21 7 1 5 26% 7401 76041 12373 33%
c i 49.77 29 157 0 37 15135 22 150433 22501 2.8 21 7 1 5 26% 7418 76041 12372 33%
c - 50.46 29 157 0 38 15380 22 153895 21773 2.8 21 7 1 4 27% 7421 76040 12372 33%
c s 51.25 29 154 0 38 15661 22 157859 25436 2.8 21 7 1 4 26% 7442 75796 12372 33%
c e 51.43 29 154 0 38 15661 22 157859 25436 2.8 21 7 1 4 26% 4667 89340 10550 28%
c 2 51.43 29 154 0 38 15661 22 157859 25436 2.8 21 7 1 4 26% 4664 89340 10550 28%
c s 51.48 29 154 0 38 15661 22 157859 25436 2.8 21 7 1 4 26% 4690 88300 10550 28%
c e 51.52 29 154 0 38 15661 22 157859 25436 2.8 21 7 1 4 26% 4600 88711 10489 28%
c ^ 51.52 29 154 0 38 15661 22 157859 25436 2.8 21 7 1 4 26% 4600 88711 10489 28%
c - 52.03 29 153 0 39 15874 21 160059 16432 2.8 21 7 1 4 27% 4605 88709 10489 28%
c o 52.37 29 153 0 39 16029 22 161000 17293 2.8 21 8 1 4 27% 4605 88709 10489 28%
c i 52.87 29 151 0 39 16255 21 164059 19989 2.8 21 8 1 4 26% 4644 88709 10488 28%
c d 53.07 29 151 0 39 16323 21 164796 20565 2.8 21 8 1 4 26% 4633 88698 10480 28%
c d 53.08 29 151 0 39 16323 21 164796 20565 2.8 21 8 1 4 26% 4631 88698 10479 28%
c u 53.16 29 151 0 39 16323 21 164796 18221 2.8 21 8 1 4 26% 4665 88698 10479 28%
c
c  seconds   switched      rate          size/glue tier1    binary         remaining
c         MB   reductions    conflicts         size  tier2     irredundant
c           level   restarts        redundant    glue   trail         variables
c
c v 53.26 29 151 0 39 16323 21 164796 15520 2.8 21 8 1 4 26% 4672 88698 10479 28%
c w 53.56 29 151 0 39 16323 21 164796 15422 2.8 21 8 1 4 26% 4672 88698 10479 28%
c x 53.69 29 151 0 39 16323 21 164796 15422 2.8 21 8 1 4 26% 4672 88665 10479 28%
c = 54.45 29 151 0 39 16323 21 164796 15422 2.8 21 8 1 4 26% 4738 88646 10444 28%
c d 54.46 29 151 0 39 16323 21 164796 15337 2.8 21 8 1 4 26% 4660 88646 10444 28%
c t 54.47 29 151 0 39 16323 21 164796 15337 2.8 21 8 1 4 26% 4577 88646 10444 28%
c f 54.58 29 151 0 39 16323 21 164796 15337 2.8 21 8 1 4 26% 4628 87993 10475 28%
c u 54.63 29 151 0 39 16323 21 164796 14799 2.8 21 8 1 4 26% 4637 87993 10475 28%
c v 54.67 29 151 0 39 16323 21 164796 14340 2.8 21 8 1 4 26% 4638 87993 10475 28%
c w 54.98 29 151 0 39 16323 21 164796 13504 2.8 21 8 1 4 26% 4638 87993 10475 28%
c = 55.57 29 151 0 39 16323 21 164796 13504 2.8 21 8 1 4 26% 4658 87993 10465 28%
c d 55.58 29 151 0 39 16323 21 164796 13473 2.8 21 8 1 4 26% 4638 87993 10465 28%
c t 55.59 29 151 0 39 16323 21 164796 13473 2.8 21 8 1 4 26% 4635 87993 10465 28%
c - 55.78 29 151 0 40 16426 21 166305 12841 2.8 21 8 1 4 26% 4630 87993 10465 28%
c - 56.73 29 149 0 41 17079 21 172629 15875 2.7 21 8 1 4 27% 4638 87991 10465 28%
c i 57.22 29 147 0 41 17404 21 177100 20029 2.7 21 8 1 4 27% 4652 87991 10464 28%
c - 57.50 29 146 0 42 17554 21 179032 18551 2.7 21 8 1 4 27% 4651 87989 10464 28%
c i 58.16 29 147 0 42 18004 21 183343 22531 2.7 21 8 1 4 27% 4668 87989 10463 28%
c - 58.46 29 148 0 43 18177 21 185513 20485 2.7 21 8 1 4 27% 4672 87989 10463 28%
c i 58.64 29 147 0 43 18314 21 187103 21958 2.7 21 8 1 4 27% 4684 87989 10462 28%
c
c  seconds   switched      rate          size/glue tier1    binary         remaining
c         MB   reductions    conflicts         size  tier2     irredundant
c           level   restarts        redundant    glue   trail         variables
c
c i 59.37 29 146 0 43 18838 21 191625 26210 2.8 22 8 1 4 27% 4692 87989 10461 28%
c - 59.40 29 146 0 44 18846 21 192070 21981 2.8 22 8 1 4 27% 4683 87989 10461 28%
c i 59.58 29 145 0 44 18947 21 194233 23887 2.8 22 8 1 4 27% 4699 87988 10460 28%
c - 60.16 29 143 0 45 19333 20 198703 23323 2.7 22 8 1 4 27% 4700 87988 10460 28%
c i 60.17 29 143 0 45 19343 20 198784 23397 2.7 22 8 1 4 27% 4705 87988 10459 28%
c i 60.21 29 143 0 45 19362 20 199052 23647 2.7 22 8 1 4 27% 4705 87988 10458 28%
c d 60.47 29 143 0 45 19537 20 200579 24972 2.7 22 8 1 4 27% 4707 87930 10452 28%
c d 60.47 29 143 0 45 19537 20 200579 24970 2.7 22 8 1 4 27% 4699 87930 10448 28%
c u 60.54 29 143 0 45 19537 20 200579 22454 2.7 22 8 1 4 27% 4730 87930 10447 28%
c v 60.62 29 143 0 45 19537 20 200579 18487 2.7 22 8 1 4 27% 4732 87930 10447 28%
c w 60.77 29 143 0 45 19537 20 200579 18359 2.7 22 8 1 4 27% 4732 87930 10447 28%
c x 60.85 29 143 0 45 19537 20 200579 18357 2.7 22 8 1 4 27% 4734 87883 10447 28%
c = 61.45 29 143 0 45 19537 20 200579 18357 2.7 22 8 1 4 27% 4778 87871 10424 28%
c d 61.46 29 143 0 45 19537 20 200579 18311 2.7 22 8 1 4 27% 4733 87870 10424 28%
c t 61.47 29 143 0 45 19537 20 200579 18311 2.7 22 8 1 4 27% 4692 87870 10423 28%
c u 61.56 29 143 0 45 19537 20 200579 17641 2.7 22 8 1 4 27% 4709 87861 10423 28%
c v 61.61 29 143 0 45 19537 20 200579 16931 2.7 22 8 1 4 27% 4716 87861 10423 28%
c w 61.81 29 143 0 45 19537 20 200579 16149 2.7 22 8 1 4 27% 4716 87861 10423 28%
c = 62.42 29 143 0 45 19537 20 200579 16149 2.7 22 8 1 4 27% 4718 87861 10422 28%
c d 62.43 29 143 0 45 19537 20 200579 16149 2.7 22 8 1 4 27% 4716 87861 10422 28%
c
c  seconds   switched      rate          size/glue tier1    binary         remaining
c         MB   reductions    conflicts         size  tier2     irredundant
c           level   restarts        redundant    glue   trail         variables
c
c t 62.44 29 143 0 45 19537 20 200579 16149 2.7 22 8 1 4 27% 4697 87861 10422 28%
c i 62.45 29 143 0 45 19537 20 200579 16149 2.7 22 8 1 4 27% 4697 87861 10422 28%
c i 62.84 29 142 0 45 19739 20 204262 19616 2.7 22 8 1 4 27% 4706 87861 10421 28%
c - 62.95 29 142 0 46 19827 20 205411 17410 2.7 22 8 1 4 27% 4703 87861 10421 28%
c i 63.09 29 141 0 46 19908 20 206463 18379 2.7 22 8 1 4 27% 4705 87860 10420 28%
c i 63.24 29 141 0 46 19987 20 208096 19829 2.7 22 8 1 4 27% 4715 87859 10419 28%
c i 63.72 29 140 0 46 20287 20 211436 22929 2.7 22 8 1 4 27% 4726 87859 10418 28%
c i 63.73 29 140 0 46 20287 20 211475 22956 2.7 22 8 1 4 27% 4727 87859 10417 28%
c - 63.77 29 139 0 47 20329 20 212194 19970 2.7 22 8 1 4 27% 4722 87858 10417 28%
c i 63.78 29 139 0 47 20330 20 212303 20063 2.7 22 8 1 4 27% 4723 87858 10416 28%
c i 63.78 29 139 0 47 20330 20 212336 20084 2.7 22 8 1 4 27% 4726 87858 10415 28%
c i 63.80 29 139 0 47 20331 20 212717 20433 2.7 22 8 1 4 27% 4727 87858 10413 28%
c i 63.80 29 139 0 47 20331 20 212720 20433 2.7 22 8 1 4 27% 4727 87858 10409 28%
c i 63.81 29 139 0 47 20334 20 212742 20452 2.7 22 8 1 4 27% 4728 87858 10408 28%
c i 63.90 29 139 0 47 20409 20 213547 21183 2.7 22 8 1 4 27% 4731 87858 10407 28%
c i 64.05 29 138 0 47 20484 19 215494 22941 2.7 21 8 1 4 27% 4736 87857 10406 28%
c i 64.08 29 137 0 47 20509 19 216640 23908 2.7 21 8 1 4 27% 4751 87855 10405 28%
c i 64.09 29 137 0 47 20519 19 216793 24036 2.7 21 8 1 4 27% 4754 87855 10403 28%
c i 64.13 29 137 0 47 20542 19 217309 24508 2.7 21 8 1 4 27% 4754 87855 10402 28%
c i 64.14 29 137 0 47 20554 19 217584 24742 2.7 21 8 1 4 27% 4756 87855 10401 28%
c
c  seconds   switched      rate          size/glue tier1    binary         remaining
c         MB   reductions    conflicts         size  tier2     irredundant
c           level   restarts        redundant    glue   trail         variables
c
c i 64.21 29 136 0 47 20617 19 218423 25491 2.7 21 8 1 4 26% 4762 87855 10400 28%
c i 64.24 29 136 0 47 20630 19 218917 25936 2.7 21 8 1 4 26% 4766 87855 10399 28%
c - 64.25 29 136 0 48 20630 19 219049 21130 2.7 21 8 1 4 26% 4698 87855 10399 28%
c i 64.37 29 135 0 48 20744 19 220672 22592 2.7 21 8 1 4 26% 4706 87855 10398 28%
c o 64.39 29 135 0 48 20755 19 221108 22990 2.7 21 8 1 4 26% 4707 87855 10398 28%
c i 64.49 29 133 0 48 20839 18 223741 25275 2.7 21 8 1 4 26% 4735 87855 10397 28%
c i 64.51 29 132 0 48 20852 18 224361 25787 2.6 21 8 1 4 26% 4742 87855 10395 28%
c i 64.52 29 132 0 48 20858 18 224514 25915 2.6 21 8 1 4 26% 4746 87855 10394 28%
c - 64.57 29 131 0 49 20905 18 225977 21772 2.6 21 8 1 4 25% 4735 87855 10394 28%
c i 64.73 29 128 0 49 21140 18 229366 24803 2.6 21 8 1 4 25% 4758 87854 10393 28%
c - 64.84 29 125 0 50 21257 17 232977 22477 2.6 21 8 1 4 24% 4782 87851 10393 28%
c s 65.01 29 118 0 50 21355 16 239972 28335 2.6 20 8 1 4 23% 4836 86824 10393 28%
c e 65.21 29 118 0 50 21355 16 239972 28335 2.6 20 8 1 4 23% 2062 111058 8389 22%
c 2 65.21 29 118 0 50 21355 16 239972 28335 2.6 20 8 1 4 23% 2058 111058 8389 22%
c s 65.26 29 118 0 50 21355 16 239972 28335 2.6 20 8 1 4 23% 2084 108719 8389 22%
c e 65.31 29 118 0 50 21355 16 239972 28335 2.6 20 8 1 4 23% 2047 109173 8352 22%
c ! 65.31 29 118 0 50 21355 16 239972 28335 2.6 20 8 1 4 23% 2047 109173 8352 22%
c - 65.33 29 118 0 51 21355 16 240048 13236 2.6 20 8 1 5 23% 2047 109173 8352 22%
c u 65.38 29 118 0 51 21355 16 240240 11123 2.6 20 8 1 5 23% 2071 109173 8352 22%
c v 65.42 29 118 0 51 21355 16 240240 9504 2.6 20 8 1 5 23% 2079 109173 8352 22%
c
c  seconds   switched      rate         size/glue tier1    binary         remaining
c         MB   reductions    conflicts        size  tier2     irredundant
c           level   restarts       redundant    glue   trail         variables
c
c w 65.43 29 118 0 51 21355 16 240240 9390 2.6 20 8 1 5 23% 2079 109173 8352 22%
c = 65.70 29 118 0 51 21355 16 240240 9390 2.6 20 8 1 5 23% 2081 109161 8351 22%
c d 65.70 29 118 0 51 21355 16 240240 9389 2.6 20 8 1 5 23% 2079 109161 8351 22%
c t 65.71 29 118 0 51 21355 16 240240 9389 2.6 20 8 1 5 23% 2019 109161 8351 22%
c f 65.80 29 118 0 51 21355 16 240240 9389 2.6 20 8 1 5 23% 2150 105259 8428 22%
c u 65.84 29 118 0 51 21355 16 240240 9146 2.6 20 8 1 5 23% 2155 105259 8428 22%
c v 65.89 29 118 0 51 21355 16 240240 8911 2.6 20 8 1 5 23% 2155 105259 8428 22%
c w 65.90 29 118 0 51 21355 16 240240 8881 2.6 20 8 1 5 23% 2155 105259 8428 22%
c x 66.01 29 118 0 51 21355 16 240240 8840 2.6 20 8 1 5 23% 2181 103597 8428 22%
c = 66.28 29 118 0 51 21355 16 240240 8840 2.6 20 8 1 5 23% 2181 103591 8427 22%
c d 66.29 29 118 0 51 21355 16 240240 8840 2.6 20 8 1 5 23% 2179 103591 8427 22%
c t 66.29 29 118 0 51 21355 16 240240 8840 2.6 20 8 1 5 23% 2168 103591 8427 22%
c f 66.36 29 118 0 51 21355 16 240240 8840 2.6 20 8 1 5 23% 2202 103377 8435 22%
c i 66.45 29 113 0 51 21391 15 244961 12889 2.6 20 8 1 5 22% 2229 103376 8434 22%
c i 66.46 29 112 0 51 21391 15 245580 13268 2.6 20 8 1 5 21% 2237 103376 8403 22%
c i 66.46 29 112 0 51 21394 15 245636 13317 2.6 20 8 1 5 21% 2238 103376 8402 22%
c i 66.46 29 112 0 51 21394 15 245819 13451 2.6 20 8 1 5 21% 2243 103376 8401 22%
c i 66.46 29 112 0 51 21394 15 245836 13456 2.6 20 8 1 5 21% 2248 103376 8400 22%
c i 66.46 29 112 0 51 21394 15 245846 13461 2.6 20 8 1 5 21% 2250 103376 8399 22%
c i 66.46 29 112 0 51 21394 15 245847 13461 2.6 20 8 1 5 21% 2250 103376 8395 22%
c
c  seconds   switched      rate          size/glue tier1    binary         remaining
c         MB   reductions    conflicts         size  tier2     irredundant
c           level   restarts        redundant    glue   trail         variables
c
c i 66.46 29 112 0 51 21394 15 245848 13461 2.6 20 8 1 5 21% 2250 103376 8377 22%
c } 66.46 29 112 0 51 21394 15 245850 13461 2.6 20 8 1 5 21% 2250 103376 8351 22%
c 0 66.46 29 112 0 51 21394 15 245850 13461 2.6 20 8 1 5 21% 2250 103376 8351 22%
c
c ---- [ result ] ------------------------------------------------------------
c
s UNSATISFIABLE
c
c ---- [ profiling ] ---------------------------------------------------------
c
c          45.60   68.61 %  search
c          45.60   68.61 %  focused
c          20.26   30.49 %  simplify
c          19.09   28.72 %  probe
c           8.95   13.46 %  sweep
c           7.21   10.85 %  vivify
c           1.50    2.25 %  eliminate
c           1.26    1.89 %  factor
c           0.83    1.26 %  substitute
c           0.53    0.80 %  congruence
c           0.50    0.76 %  preprocess
c           0.34    0.52 %  reduce
c           0.29    0.43 %  subsume
c           0.20    0.30 %  transitive
c           0.17    0.25 %  fastel
c           0.11    0.17 %  backbone
c           0.05    0.08 %  lucky
c           0.04    0.06 %  parse
c =============================================
c          66.46  100.00 %  total
c
c ---- [ statistics ] --------------------------------------------------------
c
c chronological:                         6178                3 %  conflicts
c conflicts:                           245850             3698.94 per second
c congruent:                             3854               10 %  variables
c decisions:                          4523828               18.40 per conflict
c eliminated:                           22957               61 %  variables
c factored:                              4159               11 %  variables
c fast_eliminated:                      11351               49 %  eliminated
c fast_strengthened:                       25                0 %  per strengthened
c fast_subsumed:                           80                0 %  per subsumed
c iterations:                              42                0 %  variables
c propagations:                     198697701          2989507    per second
c reductions:                              51             4821    interval
c reordered:                                7            35121    interval
c restarts:                             21394               11    interval
c strengthened:                          9012                0 %  checks
c substituted:                          10284               27 %  variables
c subsumed:                             18935                0 %  checks
c switched:                                 0                0    interval
c vivified:                            107111               14 %  checks
c
c ---- [ glue usage ] --------------------------------------------------------
c
c focused glue 1 used 478309 clauses 62.00% accumulated 62.00% tier1
c focused glue 2 used 139563 clauses 18.09% accumulated 80.09%
c focused glue 3 used  48091 clauses  6.23% accumulated 86.33%
c focused glue 4 used  27242 clauses  3.53% accumulated 89.86%
c focused glue 5 used  17397 clauses  2.26% accumulated 92.12% tier2
c
c ---- [ resources ] ---------------------------------------------------------
c
c maximum-resident-set-size:         32038912 bytes         31 MB
c process-time:                          1m 6s              66.46 seconds
c
c ---- [ shutting down ] -----------------------------------------------------
c
c exit 20
